100 500 200 500 10 100
15 236
75 279
41 361
69 269
42 307
96 484
78 247
45 440
65 424
67 492
74 386
19 419
12 493
55 491
55 463
98 346
59 276
14 458
22 273
43 368
85 411
98 352
99 364
95 295
18 443
45 284
62 433
46 496
79 471
81 462
87 403
10 331
12 431
88 365
78 213
87 281
39 334
40 330
26 423
54 483
11 462
69 391
43 218
81 216
22 321
62 321
92 484
61 203
29 438
72 316
86 350
21 374
42 228
15 379
38 379
99 464
11 326
56 432
34 491
72 282
87 375
26 284
11 303
35 470
79 354
81 441
18 381
42 386
60 217
24 258
60 375
45 434
42 326
21 344
81 261
83 376
33 227
62 492
39 497
18 270
46 445
35 252
45 223
57 433
68 201
46 385
100 411
95 376
35 432
24 301
69 294
89 327
22 387
79 401
36 479
58 432
40 431
26 498
51 370
69 444
